p cnf 1115 1293
c ind 759 760 761 774 781 807 868 869 882 889 0
c ind 893 895 898 914 916 919 931 932 951 953 0
c ind 957 968 969 973 974 975 979 981 752 867 0
c ind 782 794 753 754 866 757 758 865 1068 1069 0
c ind 1067 1066 1100 1082 1091 1105 1086 1096 1113 1099 0
c ind 1081 1090 1104 1085 1095 1112 1064 1065 1098 1080 0
c ind 1089 1103 1084 1094 1111 1063 1097 1079 1088 1102 0
c ind 1083 1093 1110 1058 1074 1078 1108 1062 1061 1060 0
c ind 1059 1056 1057 1076 1106 1077 1107 1055 1050 1054 0
c ind 1053 1052 1051 1087 1101 1092 1109 755 756 1048 0
c ind 1049 1041 1042 1047 1075 1046 1045 1044 1043 1039 0
c ind 1040 1038 1071 1037 1035 1036 1072 1034 1029 1033 0
c ind 1032 1031 1030 1027 1028 1026 1021 1025 1024 1023 0
c ind 1022 1019 1020 1073 1012 1013 1018 1017 1016 1015 0
c ind 1014 1070 1010 1011 1009 1008 1006 1007 1005 1000 0
c ind 1004 1003 1002 1001 998 999 997 992 996 995 0
c ind 994 993 990 991 983 984 989 988 987 986 0
c ind 985 963 964 962 961 960 982 972 970 971 0
c ind 959 958 980 967 956 978 976 977 965 966 0
c ind 955 954 947 952 950 948 949 946 939 938 0
c ind 945 944 943 942 941 940 937 936 935 934 0
c ind 933 751 926 925 923 924 922 921 927 928 0
c ind 920 918 929 917 930 915 913 911 912 910 0
c ind 909 908 907 906 905 904 902 903 901 900 0
c ind 899 897 896 872 894 892 890 891 764 888 0
c ind 883 887 884 885 879 886 881 877 878 880 0
c ind 876 871 875 873 874 870 864 857 849 863 0
c ind 862 861 860 843 842 841 859 840 858 839 0
c ind 838 837 856 855 854 853 852 851 850 848 0
c ind 847 846 845 844 836 829 821 835 834 833 0
c ind 832 815 814 813 831 812 830 811 810 809 0
c ind 828 827 826 825 824 823 822 820 819 818 0
c ind 817 816 808 806 804 805 795 796 803 802 0
c ind 801 800 799 797 798 791 790 792 793 789 0
c ind 788 787 786 784 785 783 780 779 775 776 0
c ind 777 778 771 773 770 769 772 763 768 762 0
c ind 767 765 766 1 0
c ret 606 607 608 609 610 611 612 613 614 615 0
c ret 616 617 618 619 620 621 622 623 624 625 0
c ret 626 627 628 629 630 631 632 633 634 635 0
c ret 636 637 638 639 640 641 642 643 644 645 0
c ret 646 647 648 649 650 651 652 653 654 655 0
c ret 656 657 658 659 660 661 662 663 664 665 0
c ret 666 667 668 669 670 671 672 673 674 675 0
c ret 676 677 678 679 680 681 682 683 684 685 0
c ret 686 687 688 689 690 691 692 693 694 695 0
c ret 696 697 698 699 700 701 702 703 704 705 0
c ret 706 707 708 709 710 711 712 713 714 715 0
c ret 301 307 308 309 310 311 312 716 313 717 0
c ret 314 315 316 718 317 719 318 319 320 321 0
c ret 322 323 324 325 326 327 328 329 330 720 0
c ret 331 721 332 722 333 723 334 335 336 337 0
c ret 338 339 340 341 342 343 302 724 344 345 0
c ret 346 347 348 725 726 349 350 727 351 728 0
c ret 352 353 354 355 356 357 358 729 359 360 0
c ret 361 362 363 364 730 365 731 366 367 368 0
c ret 369 732 733 370 371 372 373 374 375 376 0
c ret 377 378 379 380 381 382 383 384 734 303 0
c ret 385 735 386 736 737 387 388 389 390 391 0
c ret 392 393 394 395 396 397 738 398 399 400 0
c ret 401 402 403 739 404 740 405 406 741 742 0
c ret 407 408 409 410 411 412 413 414 743 744 0
c ret 415 416 417 745 418 419 420 421 422 423 0
c ret 424 304 425 426 427 428 429 430 431 432 0
c ret 746 433 434 435 747 436 748 437 438 749 0
c ret 750 439 440 441 442 443 444 445 446 447 0
c ret 448 449 450 451 452 453 454 455 456 457 0
c ret 458 459 460 461 462 463 464 465 466 467 0
c ret 468 469 470 471 472 473 474 475 476 477 0
c ret 478 479 480 481 482 483 484 485 486 487 0
c ret 488 489 490 491 492 493 494 495 305 496 0
c ret 497 498 499 500 501 502 503 504 505 506 0
c ret 507 508 509 510 511 512 513 514 515 516 0
c ret 517 518 519 520 521 522 523 524 525 526 0
c ret 527 528 529 530 531 532 533 534 306 535 0
c ret 536 537 538 539 540 541 542 543 544 545 0
c ret 546 547 548 549 550 551 552 553 554 555 0
c ret 556 557 558 559 560 561 562 563 564 565 0
c ret 566 567 568 569 570 571 572 573 574 575 0
c ret 576 577 578 579 580 581 582 583 584 585 0
c ret 586 587 588 589 590 591 592 593 594 595 0
c ret 596 597 598 599 600 601 602 603 604 605 0
2 136 296 -297 0
2 3 296 -297 0
-2 297 0
-2 -296 0
-2 -3 -136 0
3 -4 -61 -126 0
3 4 61 116 0
3 4 61 -126 0
3 -4 -61 116 0
-3 4 -61 0
-3 -4 61 0
-3 -116 126 0
4 -5 -18 0
4 -5 55 0
-4 5 0
-4 18 -55 0
5 6 -12 0
-5 -6 0
-5 12 0
6 -8 -9 0
6 -7 -9 0
-6 9 0
-6 7 8 0
7 983 0
7 -984 -990 0
7 984 -991 0
-7 -983 984 991 0
-7 -983 -984 990 0
-7 8 0
8 -992 998 0
8 992 999 0
7 -8 -992 -998 0
7 -8 992 -999 0
9 -10 -11 0
-7 9 -11 0
-9 11 0
7 -9 10 0
-7 10 0
10 992 -999 0
10 -992 -998 0
7 -10 -992 998 0
7 -10 992 999 0
11 983 0
11 -984 990 0
11 984 991 0
-11 -983 984 -991 0
-11 -983 -984 -990 0
12 13 -1041 0
-12 1041 0
-12 -13 0
13 -14 -15 0
13 -14 -16 17 0
-13 14 0
-13 15 -17 0
-13 15 16 0
14 1012 0
14 -1013 1019 0
14 1013 1020 0
-14 -1012 1013 -1020 0
-14 -1012 -1013 -1019 0
15 1012 0
15 -1013 -1019 0
15 1013 -1020 0
-15 -1012 1013 1020 0
-15 -1012 -1013 1019 0
16 1021 1028 0
16 -1021 1027 0
-16 -1021 -1027 0
-16 1021 -1028 0
15 17 -1021 1027 0
15 17 1021 1028 0
-15 -17 0
-17 1021 -1028 0
-17 -1021 -1027 0
18 -19 -54 -1091 0
18 19 -20 -54 0
-18 54 0
-18 -19 1091 0
-18 19 20 0
19 978 -980 0
-19 -978 0
-19 980 0
20 -21 -1090 0
20 21 -22 0
-20 -21 1090 0
-20 21 22 0
21 950 -952 0
-21 -950 0
-21 952 0
22 23 46 53 0
22 23 46 -49 0
-22 -23 0
-22 -46 0
-22 49 -53 0
23 -44 751 -926 0
23 24 751 926 0
-23 -751 0
-23 44 -926 0
-23 -24 926 0
24 -25 -1087 0
-24 1087 0
-24 25 0
25 -26 40 0
-25 26 0
-25 -40 0
26 -33 34 0
26 27 34 -816 0
-26 -34 0
-26 -27 33 0
-26 33 816 0
27 28 0
27 31 -815 0
27 31 821 0
-27 -28 -31 0
-27 -28 815 -821 0
28 -29 30 -809 -816 0
-28 29 0
-28 -30 0
-28 809 0
-28 816 0
29 810 811 812 0
-29 -810 0
-29 -812 0
-29 -811 0
30 813 -814 0
-30 -813 0
-30 814 0
31 32 815 821 -822 0
-31 -815 0
-31 -32 0
-31 822 0
-31 -821 0
32 829 830 0
-32 -829 0
-32 -830 0
29 33 -809 0
30 33 -809 -815 0
-33 809 0
-29 -33 815 0
-29 -30 -33 0
34 36 39 0
34 36 -38 0
34 35 36 0
-34 -36 0
-34 -35 38 -39 0
35 838 839 840 0
-35 -838 0
-35 -840 0
-35 -839 0
35 36 -837 0
36 37 -837 -843 0
-36 837 0
-35 -36 843 0
-35 -36 -37 0
37 841 -842 0
-37 -841 0
-37 842 0
38 849 850 0
38 849 857 858 0
-38 -849 0
-38 -850 -857 0
-38 -850 -858 0
37 39 -837 843 -844 0
-39 844 0
-37 -39 0
-39 837 0
-39 -843 0
40 -41 -783 0
40 -43 -783 0
40 -42 -783 0
-40 783 0
-40 41 42 43 0
41 -784 785 786 0
-41 784 0
-41 -786 0
-41 -785 0
42 789 792 793 0
-42 -789 0
-42 -793 0
-42 -792 0
43 -789 790 791 0
-43 789 0
-43 -791 0
-43 -790 0
44 -45 1088 0
24 44 45 0
-44 -45 -1088 0
-24 -44 45 0
45 892 -894 0
-45 -892 0
-45 894 0
46 -47 -48 -936 0
46 -47 -48 -937 0
-46 48 0
-46 47 0
-46 936 937 0
47 939 940 941 942 0
-47 -942 0
-47 -941 0
-47 -939 0
-47 -940 0
48 -933 -934 -935 938 0
-48 935 0
-48 -938 0
-48 933 0
-48 934 0
44 49 -50 0
-44 -49 0
-49 50 0
50 51 52 0
-50 -51 0
-50 -52 0
51 913 -915 0
-51 -913 0
-51 915 0
52 905 906 907 0
-52 -905 0
-52 -907 0
-52 -906 0
51 53 -751 0
53 -751 1089 0
-53 751 0
-51 -53 -1089 0
54 -947 954 0
-54 947 0
-54 -954 0
55 -56 -947 0
20 22 55 0
20 55 -947 0
22 55 -56 0
-22 -55 947 0
-20 -55 56 0
56 58 954 0
56 -57 58 0
56 58 947 0
-56 -58 0
-56 57 -947 -954 0
57 -955 956 0
-57 955 0
-57 -956 0
58 59 -60 0
-58 -59 0
-58 60 0
59 958 -959 -960 961 0
-59 -958 0
-59 -961 0
-59 960 0
-59 959 0
60 -947 -954 -955 956 0
-60 955 0
-60 -956 0
-60 947 0
-60 954 0
61 -62 -71 0
61 -62 110 0
-61 62 0
-61 71 -110 0
62 63 -69 0
-62 -63 0
-62 69 0
63 -65 -66 0
63 -64 -66 0
-63 66 0
-63 64 65 0
64 533 0
64 -534 -540 0
64 534 -541 0
-64 -533 534 541 0
-64 -533 -534 540 0
-64 65 0
65 -542 548 0
65 542 549 0
64 -65 -542 -548 0
64 -65 542 -549 0
-64 66 -67 0
66 -67 -68 0
-66 67 0
64 -66 68 0
67 533 0
67 -534 540 0
67 534 541 0
-67 -533 534 -541 0
-67 -533 -534 -540 0
-64 68 0
68 542 -549 0
68 -542 -548 0
64 -68 -542 548 0
64 -68 542 549 0
69 -70 -562 -591 -678 0
-69 70 0
-69 562 0
-69 678 0
-69 591 0
70 -620 -649 0
-70 620 0
-70 649 0
71 -72 -109 -728 0
71 72 -73 -109 0
-71 109 0
-71 -72 728 0
-71 72 73 0
72 528 -530 0
-72 -528 0
-72 530 0
73 -74 -727 0
73 74 -75 0
-73 -74 727 0
-73 74 75 0
74 500 -502 0
-74 -500 0
-74 502 0
75 76 101 108 0
75 76 101 -104 0
-75 -76 0
-75 -101 0
-75 104 -108 0
76 -99 301 -476 0
76 77 301 476 0
-76 -301 0
-76 99 -476 0
-76 -77 476 0
77 -78 -724 0
-77 724 0
-77 78 0
78 79 -83 0
-78 -79 0
-78 83 0
79 -80 -333 0
79 -82 -333 0
79 -81 -333 0
-79 333 0
-79 80 81 82 0
80 -334 335 336 0
-80 334 0
-80 -336 0
-80 -335 0
81 339 342 343 0
-81 -339 0
-81 -343 0
-81 -342 0
82 -339 340 341 0
-82 339 0
-82 -341 0
-82 -340 0
83 84 -91 0
83 84 94 -366 0
-83 -84 0
-83 91 -94 0
-83 91 366 0
84 -85 88 0
84 88 387 0
-84 -88 0
-84 85 -387 0
85 -87 390 393 0
85 -86 -87 390 0
-85 -390 0
-85 87 0
-85 86 -393 0
86 391 -392 0
-86 -391 0
-86 392 0
87 388 389 0
-87 -388 0
-87 -389 0
86 -87 88 89 -90 0
87 -88 0
-88 -89 0
-86 -88 0
-88 90 0
89 399 400 0
89 399 407 408 0
-89 -399 0
-89 -400 -407 0
-89 -400 -408 0
90 -387 390 393 -394 0
-90 394 0
-90 -393 0
-90 387 0
-90 -390 0
91 92 -359 0
91 93 -359 -365 0
-91 359 0
-91 -92 365 0
-91 -92 -93 0
92 360 361 362 0
-92 -360 0
-92 -362 0
-92 -361 0
93 363 -364 0
-93 -363 0
-93 364 0
94 95 98 0
-94 -95 0
-94 -98 0
95 -96 -97 -379 0
95 -96 -97 -380 0
-95 97 0
-95 96 0
-95 379 380 0
-92 93 96 -359 -366 0
92 -96 0
-93 -96 0
-96 359 0
-96 366 0
97 365 371 -372 0
-97 372 0
-97 -371 0
-97 -365 0
-96 98 365 -371 0
96 -98 0
-98 371 0
-98 -365 0
99 -100 725 0
77 99 100 0
-99 -100 -725 0
-77 -99 100 0
100 442 -444 0
-100 -442 0
-100 444 0
101 -102 -103 -486 0
101 -102 -103 -487 0
-101 103 0
-101 102 0
-101 486 487 0
102 489 490 491 492 0
-102 -492 0
-102 -491 0
-102 -489 0
-102 -490 0
103 -483 -484 -485 488 0
-103 485 0
-103 -488 0
-103 483 0
-103 484 0
99 104 -105 0
-99 -104 0
-104 105 0
105 106 107 0
-105 -106 0
-105 -107 0
106 455 456 457 0
-106 -455 0
-106 -457 0
-106 -456 0
107 463 -465 0
-107 -463 0
-107 465 0
107 108 -301 0
108 -301 726 0
-108 301 0
-107 -108 -726 0
109 -497 504 0
-109 497 0
-109 -504 0
110 -111 -497 0
73 75 110 0
73 110 -497 0
75 110 -111 0
-75 -110 497 0
-73 -110 111 0
111 113 504 0
111 -112 113 0
111 113 497 0
-111 -113 0
-111 112 -497 -504 0
112 -505 506 0
-112 505 0
-112 -506 0
113 114 -115 0
-113 -114 0
-113 115 0
114 508 -509 -510 511 0
-114 -508 0
-114 -511 0
-114 510 0
-114 509 0
115 -497 -504 -505 506 0
-115 505 0
-115 -506 0
-115 497 0
-115 504 0
-5 116 -117 0
-5 116 125 0
5 -116 0
-116 117 -125 0
19 -54 117 -118 0
-19 -54 117 -1113 0
54 -117 0
19 -117 118 0
-19 -117 1113 0
-21 118 -1112 0
21 118 -119 0
-21 -118 1112 0
21 -118 119 0
46 119 120 124 0
46 119 120 -123 0
-46 -119 0
-119 -120 0
-119 123 -124 0
120 -122 751 -926 0
120 121 751 926 0
-120 -751 0
-120 122 -926 0
-120 -121 926 0
-25 121 -1109 0
-121 1109 0
25 -121 0
-45 122 1110 0
45 121 122 0
-45 -122 -1110 0
45 -121 -122 0
-50 122 123 0
50 -123 0
-122 -123 0
51 124 -751 0
124 -751 1111 0
-124 751 0
-51 -124 -1111 0
-56 119 125 0
118 125 -947 0
-56 125 -947 0
118 119 125 0
56 -118 -125 0
-119 -125 947 0
-62 126 -127 0
-62 126 135 0
62 -126 0
-126 127 -135 0
72 -109 127 -128 0
-72 -109 127 -750 0
109 -127 0
72 -127 128 0
-72 -127 750 0
-74 128 -749 0
74 128 -129 0
-74 -128 749 0
74 -128 129 0
101 129 130 134 0
101 129 130 -133 0
-101 -129 0
-129 -130 0
-129 133 -134 0
130 -132 301 -476 0
130 131 301 476 0
-130 -301 0
-130 132 -476 0
-130 -131 476 0
-78 131 -746 0
-131 746 0
78 -131 0
-100 132 747 0
100 131 132 0
-100 -132 -747 0
100 -131 -132 0
-105 132 133 0
105 -133 0
-132 -133 0
107 134 -301 0
134 -301 748 0
-134 301 0
-107 -134 -748 0
-111 129 135 0
128 135 -497 0
-111 135 -497 0
128 129 135 0
111 -128 -135 0
-129 -135 497 0
136 137 146 -155 -275 0
136 -137 -146 -155 -275 0
-136 275 0
-136 -137 146 0
-136 155 0
-136 137 -146 0
-5 137 -138 0
-5 137 145 0
5 -137 0
-137 138 -145 0
19 -54 138 -139 0
-19 -54 138 -1086 0
54 -138 0
19 -138 139 0
-19 -138 1086 0
-21 139 -1085 0
21 139 -140 0
-21 -139 1085 0
21 -139 140 0
46 140 141 144 0
46 140 141 -143 0
-46 -140 0
-140 -141 0
-140 143 -144 0
141 -142 751 -926 0
25 141 751 926 0
-141 -751 0
-141 142 -926 0
-25 -141 926 0
-45 142 1083 0
25 45 142 0
-45 -142 -1083 0
-25 45 -142 0
-50 142 143 0
50 -143 0
-142 -143 0
51 144 -751 0
144 -751 1084 0
-144 751 0
-51 -144 -1084 0
-56 140 145 0
139 145 -947 0
-56 145 -947 0
139 140 145 0
56 -139 -145 0
-140 -145 947 0
-62 146 -147 0
-62 146 154 0
62 -146 0
-146 147 -154 0
72 -109 147 -148 0
-72 -109 147 -723 0
109 -147 0
72 -147 148 0
-72 -147 723 0
-74 148 -722 0
74 148 -149 0
-74 -148 722 0
74 -148 149 0
101 149 150 153 0
101 149 150 -152 0
-101 -149 0
-149 -150 0
-149 152 -153 0
150 -151 301 -476 0
78 150 301 476 0
-150 -301 0
-150 151 -476 0
-78 -150 476 0
-100 151 720 0
78 100 151 0
-100 -151 -720 0
-78 100 -151 0
-105 151 152 0
105 -152 0
-151 -152 0
107 153 -301 0
153 -301 721 0
-153 301 0
-107 -153 -721 0
-111 149 154 0
148 154 -497 0
-111 154 -497 0
148 149 154 0
111 -148 -154 0
-149 -154 497 0
155 156 169 -182 -236 0
155 -156 -169 -182 -236 0
-155 236 0
-155 -156 169 0
-155 182 0
-155 156 -169 0
-62 156 -157 0
-62 156 -167 0
-62 156 -166 0
62 -156 0
-156 157 166 167 0
157 160 -161 0
-105 157 158 -161 0
-157 161 0
-157 -158 -160 0
105 -157 -160 0
-100 158 730 0
100 158 159 0
-100 -158 -730 0
100 -158 -159 0
-78 159 -729 0
-159 729 0
78 -159 0
107 160 -301 0
160 -301 731 0
-160 301 0
-107 -160 -731 0
161 162 -163 0
-161 -162 0
-161 163 0
-158 162 301 -476 0
159 162 301 476 0
-162 -301 0
158 -162 -476 0
-159 -162 476 0
101 163 164 0
-101 -163 0
-163 -164 0
-74 164 -497 0
164 -165 -497 0
-164 497 0
74 -164 165 0
-72 113 165 504 0
-112 113 165 -504 0
-113 -165 0
112 -165 -504 0
72 -165 504 0
-72 -109 166 -733 0
-166 733 0
72 -166 0
109 -166 0
-74 167 -168 -732 0
-167 732 0
74 -167 0
-167 168 0
165 168 -497 0
-168 497 0
-165 -168 0
-5 169 -170 0
-5 169 -180 0
-5 169 -179 0
5 -169 0
-169 170 179 180 0
170 173 -174 0
-50 170 171 -174 0
-170 174 0
-170 -171 -173 0
50 -170 -173 0
-45 171 1093 0
45 171 172 0
-45 -171 -1093 0
45 -171 -172 0
-25 172 -1092 0
-172 1092 0
25 -172 0
51 173 -751 0
173 -751 1094 0
-173 751 0
-51 -173 -1094 0
174 175 -176 0
-174 -175 0
-174 176 0
-171 175 751 -926 0
172 175 751 926 0
-175 -751 0
171 -175 -926 0
-172 -175 926 0
46 176 177 0
-46 -176 0
-176 -177 0
-21 177 -947 0
177 -178 -947 0
-177 947 0
21 -177 178 0
-19 58 178 954 0
-57 58 178 -954 0
-58 -178 0
57 -178 -954 0
19 -178 954 0
-19 -54 179 -1096 0
-179 1096 0
19 -179 0
54 -179 0
-21 180 -181 -1095 0
-180 1095 0
21 -180 0
-180 181 0
178 181 -947 0
-181 947 0
-178 -181 0
182 183 207 216 -224 0
182 183 -207 -216 -224 0
-182 224 0
-182 -207 216 0
-182 -183 0
-182 207 -216 0
183 184 -195 0
183 -184 195 0
-183 -184 -195 0
-183 184 195 0
184 185 -191 -194 0
184 185 -191 751 0
-184 191 0
-184 -185 0
-184 194 -751 0
185 186 190 0
185 188 190 0
185 186 -188 751 0
-185 -186 -188 0
-185 188 -190 0
-185 -190 -751 0
-26 186 -1070 0
-26 40 186 187 0
26 -186 0
-186 -187 1070 0
-40 -186 1070 0
187 762 1107 0
-187 -762 0
-187 -1107 0
188 -189 926 927 930 0
-188 189 0
-188 -930 0
-188 -926 0
-188 -927 0
189 928 929 0
-189 -928 0
-189 -929 0
190 870 -1108 0
-186 190 -870 0
186 -190 -870 0
-190 870 1108 0
13 191 -192 -1041 0
-191 1041 0
-13 -191 0
-191 192 0
9 192 -193 0
8 192 -193 -983 0
-192 193 0
-8 -9 -192 0
-9 -192 983 0
46 60 193 0
46 59 193 0
-46 -193 0
-59 -60 -193 0
52 -190 194 0
-52 -194 0
190 -194 0
195 196 -202 -206 0
195 196 -202 301 0
-195 202 0
-195 -196 0
-195 206 -301 0
196 197 201 0
196 199 201 0
196 197 -199 301 0
-196 -197 -199 0
-196 199 -201 0
-196 -201 -301 0
-83 197 -707 0
79 -83 197 198 0
83 -197 0
-197 -198 707 0
-79 -197 707 0
198 312 744 0
-198 -312 0
-198 -744 0
199 -200 476 477 0
-199 200 0
-199 -477 0
-199 -476 0
200 478 479 480 0
-200 -478 0
-200 -480 0
-200 -479 0
201 420 -745 0
-197 201 -420 0
197 -201 -420 0
-201 420 745 0
66 202 -203 0
65 202 -203 -533 0
-202 203 0
-65 -66 -202 0
-66 -202 533 0
203 -204 -205 0
-203 204 0
-203 205 0
101 115 204 0
101 114 204 0
-101 -204 0
-114 -115 -204 0
-70 205 -562 -591 -678 0
70 -205 0
-205 562 0
-205 678 0
-205 591 0
106 -201 206 0
-106 -206 0
201 -206 0
207 -212 301 0
106 207 208 -212 0
-207 212 0
-207 -208 -301 0
-106 -207 -301 0
208 209 -420 0
-83 208 -211 420 0
-208 -209 -420 0
83 -208 420 0
-208 211 420 0
-83 209 -210 0
83 -209 0
-209 210 0
210 -707 -709 0
79 210 707 0
210 -707 -713 0
-79 -210 707 0
-210 -707 709 713 0
211 -707 709 715 0
-211 707 0
-211 -715 0
-211 -709 0
-202 212 -213 214 0
-202 208 212 214 0
202 -212 0
-212 -214 0
-208 -212 213 0
213 476 477 0
-213 -476 0
-213 -477 0
209 214 -215 0
200 -208 214 0
200 214 -215 0
-208 209 214 0
208 -214 215 0
-200 -209 -214 0
-199 215 301 0
-215 -301 0
199 -215 0
216 -221 751 0
52 216 217 -221 0
-216 221 0
-216 -217 -751 0
-52 -216 -751 0
217 218 -870 0
-26 217 -220 870 0
-217 -218 -870 0
26 -217 870 0
-217 220 870 0
-26 218 -219 0
26 -218 0
-218 219 0
219 -1070 -1072 0
40 219 1070 0
219 -1070 -1076 0
-40 -219 1070 0
-219 -1070 1072 1076 0
220 -1070 1072 1078 0
-220 1070 0
-220 -1078 0
-220 -1072 0
-188 -191 221 222 0
-191 217 221 222 0
191 -221 0
-221 -222 0
188 -217 -221 0
218 222 -223 0
-222 223 0
-218 -222 0
-188 223 751 0
-223 -751 0
188 -223 0
224 225 228 230 -231 0
224 -225 -228 230 -231 0
-224 -230 0
-224 225 -228 0
-224 231 0
-224 -225 228 0
-83 -202 225 -226 227 0
-225 226 0
-225 -227 0
83 -225 0
202 -225 0
226 -707 709 0
-226 707 0
-226 -709 0
-106 227 -301 0
-227 301 0
106 -227 0
-12 -26 -192 228 -229 0
-228 229 0
12 -228 0
192 -228 0
26 -228 0
229 751 -1070 1072 0
52 229 -1070 1072 0
-229 1070 0
-229 -1072 0
-52 -229 -751 0
-8 -10 -11 230 0
8 -230 0
10 -230 0
11 -230 0
27 34 231 -232 0
-33 34 231 -232 0
-231 232 0
-34 -231 0
-27 33 -231 0
40 -193 232 -233 -1012 0
-232 233 0
-232 1012 0
193 -232 0
-40 -232 0
233 234 -235 -753 0
233 234 -235 -754 0
-233 235 0
-233 -234 0
-233 753 754 0
-52 234 -751 0
-234 751 0
52 -234 0
235 -755 -1041 0
235 756 -1041 0
-235 1041 0
-235 755 -756 0
236 237 246 -255 -265 0
236 -237 -246 -255 -265 0
236 237 246 255 265 0
236 -237 -246 255 265 0
-236 237 -246 0
-236 -237 246 0
-236 255 -265 0
-236 -255 265 0
-62 237 -238 0
-62 237 -245 0
-62 237 -244 0
62 -237 0
-237 238 244 245 0
238 241 -242 0
-105 238 239 -242 0
-238 242 0
-238 -239 -241 0
105 -238 -241 0
-100 239 739 0
100 239 240 0
-100 -239 -739 0
100 -239 -240 0
-78 240 -738 0
-240 738 0
78 -240 0
107 241 -301 0
241 -301 740 0
-241 301 0
-107 -241 -740 0
-163 242 243 0
163 -242 0
-242 -243 0
-239 243 301 -476 0
240 243 301 476 0
-243 -301 0
239 -243 -476 0
-240 -243 476 0
-72 -109 244 -742 0
-244 742 0
72 -244 0
109 -244 0
-74 -168 245 -741 0
-245 741 0
74 -245 0
168 -245 0
6 246 247 -1012 -1041 0
-246 1041 0
-246 -247 0
-246 1012 0
-6 -246 0
176 247 -253 0
247 -248 -253 0
247 -252 -253 0
-247 253 0
-176 -247 248 252 0
248 249 -751 1103 0
51 248 249 -751 0
-248 751 0
-248 -249 0
-51 -248 -1103 0
-50 249 250 0
50 -249 0
-249 -250 0
-45 250 1102 0
45 250 251 0
-45 -250 -1102 0
45 -250 -251 0
-25 251 -1101 0
-251 1101 0
25 -251 0
-250 252 751 -926 0
251 252 751 926 0
-252 -751 0
250 -252 -926 0
-251 -252 926 0
19 253 254 0
54 253 254 0
253 254 1105 0
-253 -254 0
-19 -54 -253 -1105 0
-21 -181 254 -1104 0
-254 1104 0
21 -254 0
181 -254 0
63 -205 255 256 264 0
205 -255 0
-255 -264 0
-63 -255 0
-255 -256 0
256 258 497 0
74 256 257 258 0
-256 -258 0
-256 -257 -497 0
-74 -256 -497 0
-72 257 504 -737 0
72 -257 0
-257 737 0
-257 -504 0
101 258 259 263 0
101 258 259 -262 0
-101 -258 0
-258 -259 0
-258 262 -263 0
259 -261 301 -476 0
259 260 301 476 0
-259 -301 0
-259 261 -476 0
-259 -260 476 0
-78 260 -305 0
-260 305 0
78 -260 0
-100 261 734 0
100 260 261 0
-100 -261 -734 0
100 -260 -261 0
-105 261 262 0
105 -262 0
-261 -262 0
107 263 -301 0
263 -301 735 0
-263 301 0
-107 -263 -735 0
-164 -165 257 264 0
-164 257 264 736 0
164 -264 0
-257 -264 0
165 -264 -736 0
-5 177 265 266 0
-5 265 266 274 0
5 -265 0
-265 -266 0
-177 -265 -274 0
266 268 947 0
21 266 267 268 0
-266 -268 0
-266 -267 -947 0
-21 -266 -947 0
-19 267 954 -1100 0
19 -267 0
-267 1100 0
-267 -954 0
46 268 269 273 0
46 268 269 -272 0
-46 -268 0
-268 -269 0
-268 272 -273 0
269 -271 751 -926 0
269 270 751 926 0
-269 -751 0
-269 271 -926 0
-269 -270 926 0
-25 270 -755 0
-270 755 0
25 -270 0
-45 271 1097 0
45 270 271 0
-45 -271 -1097 0
45 -270 -271 0
-50 271 272 0
50 -272 0
-271 -272 0
51 273 -751 0
273 -751 1098 0
-273 751 0
-51 -273 -1098 0
-178 267 274 0
267 274 1099 0
-267 -274 0
178 -274 -1099 0
126 275 276 286 0
-116 275 -276 -286 0
-116 275 276 286 0
126 275 -276 -286 0
-275 276 -286 0
-275 -276 286 0
116 -126 -275 0
-5 276 -277 0
-5 276 285 0
5 -276 0
-276 277 -285 0
19 -54 277 -278 0
-19 -54 277 -1082 0
54 -277 0
19 -277 278 0
-19 -277 1082 0
-21 278 -1081 0
21 278 -279 0
-21 -278 1081 0
21 -278 279 0
46 279 280 284 0
46 279 280 -283 0
-46 -279 0
-279 -280 0
-279 283 -284 0
280 281 -751 1080 0
51 280 281 -751 0
-280 751 0
-280 -281 0
-51 -280 -1080 0
-50 281 282 0
50 -281 0
-281 -282 0
25 45 282 0
-45 282 1079 0
45 282 756 0
-45 -282 -1079 0
-25 45 -282 -756 0
-25 45 283 -756 0
-25 283 -756 926 0
25 -283 0
-283 756 0
-45 -283 -926 0
284 751 1079 0
284 751 926 0
45 284 751 0
-284 -751 0
-45 -284 -926 -1079 0
-56 279 285 0
278 285 -947 0
-56 285 -947 0
278 279 285 0
56 -278 -285 0
-279 -285 947 0
-62 286 -287 0
-62 286 295 0
62 -286 0
-286 287 -295 0
72 -109 287 -288 0
-72 -109 287 -719 0
109 -287 0
72 -287 288 0
-72 -287 719 0
-74 288 -718 0
74 288 -289 0
-74 -288 718 0
74 -288 289 0
101 289 290 294 0
101 289 290 -293 0
-101 -289 0
-289 -290 0
-289 293 -294 0
290 291 -301 717 0
107 290 291 -301 0
-290 301 0
-290 -291 0
-107 -290 -717 0
-105 291 292 0
105 -291 0
-291 -292 0
78 100 292 0
-100 292 716 0
100 292 306 0
-100 -292 -716 0
-78 100 -292 -306 0
-78 100 293 -306 0
-78 293 -306 476 0
78 -293 0
-293 306 0
-100 -293 -476 0
294 301 716 0
294 301 476 0
100 294 301 0
-294 -301 0
-100 -294 -476 -716 0
-111 289 295 0
288 295 -497 0
-111 295 -497 0
288 289 295 0
111 -288 -295 0
-289 -295 497 0
-65 -67 -68 296 0
65 -296 0
67 -296 0
68 -296 0
79 84 297 298 -299 0
-297 299 0
-297 -298 0
-79 -297 0
-84 -297 0
91 95 98 298 0
-91 -298 0
-98 -298 0
-95 -298 0
-69 -204 227 299 -300 0
-299 300 0
69 -299 0
204 -299 0
-227 -299 0
300 -304 -305 0
300 -303 306 0
300 -303 -305 0
300 -304 306 0
-300 305 -306 0
-300 303 304 0
1 2 0
-1 -2 0
1114 0

